p cnf 281 810
c inputs: 1 2 3 4 5 6 7 8 9 10 11
c variables for gates: 12 ... 270
c outputs: 271 272 273 274 275 276 277 278 279 280 281
c random input: 1 2 -3 -4 -5 -6 -7 8 -9 10 11
12 -1 -6 0
-12 1 0
-12 6 0
13 -1 -7 0
-13 1 0
-13 7 0
14 -1 -8 0
-14 1 0
-14 8 0
15 -1 -9 0
-15 1 0
-15 9 0
16 -1 -10 0
-16 1 0
-16 10 0
17 -1 -11 0
-17 1 0
-17 11 0
18 -2 -6 0
-18 2 0
-18 6 0
19 -2 -7 0
-19 2 0
-19 7 0
20 -2 -8 0
-20 2 0
-20 8 0
21 -2 -9 0
-21 2 0
-21 9 0
22 -2 -10 0
-22 2 0
-22 10 0
23 -2 -11 0
-23 2 0
-23 11 0
24 -3 -6 0
-24 3 0
-24 6 0
25 -3 -7 0
-25 3 0
-25 7 0
26 -3 -8 0
-26 3 0
-26 8 0
27 -3 -9 0
-27 3 0
-27 9 0
28 -3 -10 0
-28 3 0
-28 10 0
29 -3 -11 0
-29 3 0
-29 11 0
30 -4 -6 0
-30 4 0
-30 6 0
31 -4 -7 0
-31 4 0
-31 7 0
32 -4 -8 0
-32 4 0
-32 8 0
33 -4 -9 0
-33 4 0
-33 9 0
34 -4 -10 0
-34 4 0
-34 10 0
35 -4 -11 0
-35 4 0
-35 11 0
36 -5 -6 0
-36 5 0
-36 6 0
37 -5 -7 0
-37 5 0
-37 7 0
38 -5 -8 0
-38 5 0
-38 8 0
39 -5 -9 0
-39 5 0
-39 9 0
40 -5 -10 0
-40 5 0
-40 10 0
41 -5 -11 0
-41 5 0
-41 11 0
42 -18 -13 0
-42 18 0
-42 13 0
43 -13 18 0
-43 13 0
-43 -18 0
44 -18 13 0
-44 18 0
-44 -13 0
45 43 44 0
-45 -43 0
-45 -44 0
46 -19 -14 0
-46 19 0
-46 14 0
47 -24 -14 0
-47 24 0
-47 14 0
48 -19 -24 0
-48 19 0
-48 24 0
49 48 47 0
-49 -48 0
-49 -47 0
50 46 -49 0
-50 -46 0
-50 49 0
51 -19 24 0
-51 19 0
-51 -24 0
52 -24 19 0
-52 24 0
-52 -19 0
53 52 51 0
-53 -52 0
-53 -51 0
54 -14 -53 0
-54 14 0
-54 53 0
55 14 53 0
-55 -14 0
-55 -53 0
56 54 55 0
-56 -54 0
-56 -55 0
57 -20 -15 0
-57 20 0
-57 15 0
58 -25 -15 0
-58 25 0
-58 15 0
59 -20 -25 0
-59 20 0
-59 25 0
60 58 59 0
-60 -58 0
-60 -59 0
61 57 -60 0
-61 -57 0
-61 60 0
62 -20 25 0
-62 20 0
-62 -25 0
63 -25 20 0
-63 25 0
-63 -20 0
64 63 62 0
-64 -63 0
-64 -62 0
65 -15 -64 0
-65 15 0
-65 64 0
66 15 64 0
-66 -15 0
-66 -64 0
67 65 66 0
-67 -65 0
-67 -66 0
68 -21 -16 0
-68 21 0
-68 16 0
69 -26 -16 0
-69 26 0
-69 16 0
70 -21 -26 0
-70 21 0
-70 26 0
71 69 70 0
-71 -69 0
-71 -70 0
72 68 -71 0
-72 -68 0
-72 71 0
73 -21 26 0
-73 21 0
-73 -26 0
74 -26 21 0
-74 26 0
-74 -21 0
75 74 73 0
-75 -74 0
-75 -73 0
76 -16 -75 0
-76 16 0
-76 75 0
77 16 75 0
-77 -16 0
-77 -75 0
78 76 77 0
-78 -76 0
-78 -77 0
79 -22 -17 0
-79 22 0
-79 17 0
80 -27 -17 0
-80 27 0
-80 17 0
81 -22 -27 0
-81 22 0
-81 27 0
82 80 81 0
-82 -80 0
-82 -81 0
83 79 -82 0
-83 -79 0
-83 82 0
84 -22 27 0
-84 22 0
-84 -27 0
85 -27 22 0
-85 27 0
-85 -22 0
86 85 84 0
-86 -85 0
-86 -84 0
87 -17 -86 0
-87 17 0
-87 86 0
88 17 86 0
-88 -17 0
-88 -86 0
89 87 88 0
-89 -87 0
-89 -88 0
90 -23 -28 0
-90 23 0
-90 28 0
91 -23 28 0
-91 23 0
-91 -28 0
92 -28 23 0
-92 28 0
-92 -23 0
93 92 91 0
-93 -92 0
-93 -91 0
94 -42 56 0
-94 42 0
-94 -56 0
95 42 56 0
-95 -42 0
-95 -56 0
96 -42 -56 0
-96 42 0
-96 56 0
97 96 95 0
-97 -96 0
-97 -95 0
98 50 67 0
-98 -50 0
-98 -67 0
99 -50 67 0
-99 50 0
-99 -67 0
100 50 -67 0
-100 -50 0
-100 67 0
101 100 99 0
-101 -100 0
-101 -99 0
102 61 78 0
-102 -61 0
-102 -78 0
103 -36 78 0
-103 36 0
-103 -78 0
104 -36 61 0
-104 36 0
-104 -61 0
105 104 103 0
-105 -104 0
-105 -103 0
106 -105 102 0
-106 105 0
-106 -102 0
107 36 61 0
-107 -36 0
-107 -61 0
108 -36 -61 0
-108 36 0
-108 61 0
109 108 107 0
-109 -108 0
-109 -107 0
110 78 -109 0
-110 -78 0
-110 109 0
111 -78 109 0
-111 78 0
-111 -109 0
112 111 110 0
-112 -111 0
-112 -110 0
113 72 89 0
-113 -72 0
-113 -89 0
114 -37 89 0
-114 37 0
-114 -89 0
115 -37 72 0
-115 37 0
-115 -72 0
116 115 114 0
-116 -115 0
-116 -114 0
117 -116 113 0
-117 116 0
-117 -113 0
118 37 72 0
-118 -37 0
-118 -72 0
119 -37 -72 0
-119 37 0
-119 72 0
120 119 118 0
-120 -119 0
-120 -118 0
121 89 -120 0
-121 -89 0
-121 120 0
122 -89 120 0
-122 89 0
-122 -120 0
123 122 121 0
-123 -122 0
-123 -121 0
124 93 83 0
-124 -93 0
-124 -83 0
125 -38 93 0
-125 38 0
-125 -93 0
126 -38 83 0
-126 38 0
-126 -83 0
127 125 126 0
-127 -125 0
-127 -126 0
128 124 -127 0
-128 -124 0
-128 127 0
129 38 83 0
-129 -38 0
-129 -83 0
130 -38 -83 0
-130 38 0
-130 83 0
131 130 129 0
-131 -130 0
-131 -129 0
132 93 -131 0
-132 -93 0
-132 131 0
133 -93 131 0
-133 93 0
-133 -131 0
134 132 133 0
-134 -132 0
-134 -133 0
135 -29 -90 0
-135 29 0
-135 90 0
136 -39 -29 0
-136 39 0
-136 29 0
137 -39 -90 0
-137 39 0
-137 90 0
138 136 137 0
-138 -136 0
-138 -137 0
139 135 -138 0
-139 -135 0
-139 138 0
140 39 -90 0
-140 -39 0
-140 90 0
141 -39 90 0
-141 39 0
-141 -90 0
142 140 141 0
-142 -140 0
-142 -141 0
143 -29 -142 0
-143 29 0
-143 142 0
144 29 142 0
-144 -29 0
-144 -142 0
145 144 143 0
-145 -144 0
-145 -143 0
146 -94 101 0
-146 94 0
-146 -101 0
147 -30 101 0
-147 30 0
-147 -101 0
148 -30 -94 0
-148 30 0
-148 94 0
149 148 147 0
-149 -148 0
-149 -147 0
150 -149 146 0
-150 149 0
-150 -146 0
151 30 -94 0
-151 -30 0
-151 94 0
152 -30 94 0
-152 30 0
-152 -94 0
153 152 151 0
-153 -152 0
-153 -151 0
154 101 -153 0
-154 -101 0
-154 153 0
155 -101 153 0
-155 101 0
-155 -153 0
156 154 155 0
-156 -154 0
-156 -155 0
157 -98 112 0
-157 98 0
-157 -112 0
158 -31 112 0
-158 31 0
-158 -112 0
159 -31 -98 0
-159 31 0
-159 98 0
160 159 158 0
-160 -159 0
-160 -158 0
161 -160 157 0
-161 160 0
-161 -157 0
162 31 -98 0
-162 -31 0
-162 98 0
163 -31 98 0
-163 31 0
-163 -98 0
164 163 162 0
-164 -163 0
-164 -162 0
165 -164 112 0
-165 164 0
-165 -112 0
166 164 -112 0
-166 -164 0
-166 112 0
167 165 166 0
-167 -165 0
-167 -166 0
168 123 106 0
-168 -123 0
-168 -106 0
169 -32 123 0
-169 32 0
-169 -123 0
170 -32 106 0
-170 32 0
-170 -106 0
171 169 170 0
-171 -169 0
-171 -170 0
172 168 -171 0
-172 -168 0
-172 171 0
173 32 106 0
-173 -32 0
-173 -106 0
174 -32 -106 0
-174 32 0
-174 106 0
175 174 173 0
-175 -174 0
-175 -173 0
176 -175 123 0
-176 175 0
-176 -123 0
177 175 -123 0
-177 -175 0
-177 123 0
178 176 177 0
-178 -176 0
-178 -177 0
179 134 117 0
-179 -134 0
-179 -117 0
180 -33 134 0
-180 33 0
-180 -134 0
181 -33 117 0
-181 33 0
-181 -117 0
182 180 181 0
-182 -180 0
-182 -181 0
183 -182 179 0
-183 182 0
-183 -179 0
184 33 117 0
-184 -33 0
-184 -117 0
185 -33 -117 0
-185 33 0
-185 117 0
186 185 184 0
-186 -185 0
-186 -184 0
187 -186 134 0
-187 186 0
-187 -134 0
188 186 -134 0
-188 -186 0
-188 134 0
189 187 188 0
-189 -187 0
-189 -188 0
190 145 128 0
-190 -145 0
-190 -128 0
191 -34 145 0
-191 34 0
-191 -145 0
192 -34 128 0
-192 34 0
-192 -128 0
193 191 192 0
-193 -191 0
-193 -192 0
194 190 -193 0
-194 -190 0
-194 193 0
195 34 128 0
-195 -34 0
-195 -128 0
196 -34 -128 0
-196 34 0
-196 128 0
197 195 196 0
-197 -195 0
-197 -196 0
198 -197 145 0
-198 197 0
-198 -145 0
199 197 -145 0
-199 -197 0
-199 145 0
200 198 199 0
-200 -198 0
-200 -199 0
201 -40 139 0
-201 40 0
-201 -139 0
202 -35 -40 0
-202 35 0
-202 40 0
203 -35 139 0
-203 35 0
-203 -139 0
204 202 203 0
-204 -202 0
-204 -203 0
205 201 -204 0
-205 -201 0
-205 204 0
206 35 139 0
-206 -35 0
-206 -139 0
207 -35 -139 0
-207 35 0
-207 139 0
208 206 207 0
-208 -206 0
-208 -207 0
209 -40 -208 0
-209 40 0
-209 208 0
210 40 208 0
-210 -40 0
-210 -208 0
211 210 209 0
-211 -210 0
-211 -209 0
212 -150 167 0
-212 150 0
-212 -167 0
213 150 -167 0
-213 -150 0
-213 167 0
214 213 212 0
-214 -213 0
-214 -212 0
215 150 167 0
-215 -150 0
-215 -167 0
216 178 -161 0
-216 -178 0
-216 161 0
217 -178 161 0
-217 178 0
-217 -161 0
218 216 217 0
-218 -216 0
-218 -217 0
219 -218 -215 0
-219 218 0
-219 215 0
220 218 215 0
-220 -218 0
-220 -215 0
221 220 219 0
-221 -220 0
-221 -219 0
222 178 -215 0
-222 -178 0
-222 215 0
223 -215 161 0
-223 215 0
-223 -161 0
224 178 161 0
-224 -178 0
-224 -161 0
225 223 224 0
-225 -223 0
-225 -224 0
226 -225 222 0
-226 225 0
-226 -222 0
227 189 -172 0
-227 -189 0
-227 172 0
228 -189 172 0
-228 189 0
-228 -172 0
229 227 228 0
-229 -227 0
-229 -228 0
230 -229 226 0
-230 229 0
-230 -226 0
231 229 -226 0
-231 -229 0
-231 226 0
232 230 231 0
-232 -230 0
-232 -231 0
233 189 226 0
-233 -189 0
-233 -226 0
234 226 172 0
-234 -226 0
-234 -172 0
235 189 172 0
-235 -189 0
-235 -172 0
236 234 235 0
-236 -234 0
-236 -235 0
237 233 -236 0
-237 -233 0
-237 236 0
238 -183 200 0
-238 183 0
-238 -200 0
239 183 -200 0
-239 -183 0
-239 200 0
240 238 239 0
-240 -238 0
-240 -239 0
241 -240 237 0
-241 240 0
-241 -237 0
242 240 -237 0
-242 -240 0
-242 237 0
243 241 242 0
-243 -241 0
-243 -242 0
244 237 200 0
-244 -237 0
-244 -200 0
245 183 237 0
-245 -183 0
-245 -237 0
246 183 200 0
-246 -183 0
-246 -200 0
247 246 245 0
-247 -246 0
-247 -245 0
248 244 -247 0
-248 -244 0
-248 247 0
249 211 -194 0
-249 -211 0
-249 194 0
250 -211 194 0
-250 211 0
-250 -194 0
251 250 249 0
-251 -250 0
-251 -249 0
252 248 -251 0
-252 -248 0
-252 251 0
253 -248 251 0
-253 248 0
-253 -251 0
254 253 252 0
-254 -253 0
-254 -252 0
255 248 211 0
-255 -248 0
-255 -211 0
256 248 194 0
-256 -248 0
-256 -194 0
257 211 194 0
-257 -211 0
-257 -194 0
258 256 257 0
-258 -256 0
-258 -257 0
259 -258 255 0
-259 258 0
-259 -255 0
260 -41 -205 0
-260 41 0
-260 205 0
261 41 205 0
-261 -41 0
-261 -205 0
262 260 261 0
-262 -260 0
-262 -261 0
263 259 -262 0
-263 -259 0
-263 262 0
264 -259 262 0
-264 259 0
-264 -262 0
265 264 263 0
-265 -264 0
-265 -263 0
266 -41 259 0
-266 41 0
-266 -259 0
267 259 205 0
-267 -259 0
-267 -205 0
268 -41 205 0
-268 41 0
-268 -205 0
269 267 268 0
-269 -267 0
-269 -268 0
270 266 -269 0
-270 -266 0
-270 269 0
-271 12 0
271 -12 0
-272 -45 0
272 45 0
-273 -97 0
273 97 0
-274 -156 0
274 156 0
-275 -214 0
275 214 0
-276 -221 0
276 221 0
-277 -232 0
277 232 0
-278 -243 0
278 243 0
-279 -254 0
279 254 0
-280 -265 0
280 265 0
-281 -270 0
281 270 0
-271 0
-272 0
273 0
274 0
275 0
-276 0
-277 0
278 0
-279 0
-280 0
-281 0
